10
5
5
-0 -9 -5 10 -9 
48 -196 118 -123 -67 
1 -3 -2 5 -4 
-114 72 -145 -170 -157 
8 0 0 19 0 
0 0 0 0 0 
0 0 19 0 4 
0 0 2 0 0 
0 0 0 0 0 
0 0 2 0 0 
4 0 2 0 0 
0 0 10 15 0 
0 15 5 0 2 
0 0 0 0 0 
6 0 0 0 0 
0 17 0 0 0 
0 0 9 0 0 
0 0 0 8 0 
0 0 0 0 10 
0 0 0 0 0 
0 0 0 0 0 
0 0 0 0 0 
0 0 0 0 0 
1 1 1 1 1 
94 74 60 99 75 100 80 71 80 1 
1 1 1 1 1 1 1 1 1 1 
